Bruniera/ragionamento automatico/progetto/benchmark/asp/mid13.lp
start(0).
limit(6).
n(14).
strada(0,3,4).
strada(0,7,3).
strada(0,8,4).
strada(0,10,9).
strada(0,11,19).
strada(0,13,12).
strada(1,6,16).
strada(1,9,6).
strada(1,11,8).
strada(1,12,11).
strada(2,0,17).
strada(2,1,2).
strada(2,3,16).
strada(2,4,16).
strada(2,5,1).
strada(2,7,6).
strada(2,9,19).
strada(2,10,13).
strada(2,12,19).
strada(2,13,4).
strada(3,1,11).
strada(3,2,7).
strada(3,6,8).
strada(3,7,3).
strada(3,8,19).
strada(3,11,3).
strada(4,5,2).
strada(4,7,9).
strada(4,8,20).
strada(4,11,16).
strada(4,12,6).
strada(5,6,13).
strada(5,8,15).
strada(5,11,6).
strada(6,1,3).
strada(6,2,10).
strada(6,3,12).
strada(6,5,18).
strada(6,9,2).
strada(6,10,19).
strada(6,11,13).
strada(6,13,0).
strada(7,3,19).
strada(7,4,4).
strada(7,5,0).
strada(7,6,7).
strada(7,8,14).
strada(7,10,9).
strada(7,12,0).
strada(8,1,16).
strada(8,4,12).
strada(8,6,20).
strada(8,9,4).
strada(8,11,14).
strada(8,12,20).
strada(8,13,15).
strada(9,1,1).
strada(9,10,9).
strada(9,11,6).
strada(9,12,18).
strada(10,1,3).
strada(10,3,13).
strada(10,5,18).
strada(10,6,16).
strada(10,9,11).
strada(10,13,6).
strada(11,1,16).
strada(11,3,3).
strada(11,9,2).
strada(11,10,5).
strada(11,12,2).
strada(11,13,6).
strada(12,0,12).
strada(12,1,13).
strada(12,3,2).
strada(12,5,8).
strada(12,6,8).
strada(12,8,14).
strada(12,9,11).
strada(12,13,13).
strada(13,5,9).
strada(13,8,6).
strada(13,10,16).
strada(13,11,10).
