Bruniera/ragionamento automatico/progetto/benchmark/minizinc/mid13.dzn
start = 1;
limit = 6;
n = 14;
m=[|-1,-1,-1,4,-1,-1,-1,3,4,-1,9,19,-1,12,
|-1,-1,-1,-1,-1,-1,16,-1,-1,6,-1,8,11,-1,
|17,2,-1,16,16,1,-1,6,-1,19,13,-1,19,4,
|-1,11,7,-1,-1,-1,8,3,19,-1,-1,3,-1,-1,
|-1,-1,-1,-1,-1,2,-1,9,20,-1,-1,16,6,-1,
|-1,-1,-1,-1,-1,-1,13,-1,15,-1,-1,6,-1,-1,
|-1,3,10,12,-1,18,-1,-1,-1,2,19,13,-1,0,
|-1,-1,-1,19,4,0,7,-1,14,-1,9,-1,0,-1,
|-1,16,-1,-1,12,-1,20,-1,-1,4,-1,14,20,15,
|-1,1,-1,-1,-1,-1,-1,-1,-1,-1,9,6,18,-1,
|-1,3,-1,13,-1,18,16,-1,-1,11,-1,-1,-1,6,
|-1,16,-1,3,-1,-1,-1,-1,-1,2,5,-1,2,6,
|12,13,-1,2,-1,8,8,-1,14,11,-1,-1,-1,13,
|-1,-1,-1,-1,-1,9,-1,-1,6,-1,16,10,-1,-1,
|]
;